SECTION Graph 
Nodes 555
Edges 1098
E 1 501 18
E 1 506 7
E 2 3 14
E 2 502 18
E 3 4 1
E 3 507 18
E 4 508 18
E 5 6 1
E 5 232 58
E 6 7 14
E 6 234 58
E 7 8 1
E 8 218 28
E 8 247 53
E 9 10 1
E 9 487 27
E 9 498 7
E 9 501 3
E 10 11 14
E 10 488 27
E 10 502 3
E 11 12 1
E 11 493 27
E 11 507 3
E 12 494 27
E 12 508 3
E 13 14 1
E 13 272 11
E 13 277 7
E 14 15 14
E 14 274 11
E 15 16 1
E 15 284 11
E 16 285 11
E 17 18 1
E 17 250 11
E 17 257 7
E 17 272 10
E 18 19 14
E 18 252 11
E 18 274 10
E 19 20 1
E 19 268 11
E 19 284 10
E 20 269 11
E 20 285 10
E 21 22 1
E 21 231 9
E 21 250 10
E 22 23 14
E 22 252 10
E 23 24 1
E 23 268 10
E 24 269 10
E 25 26 1
E 25 484 30
E 25 499 3
E 26 27 14
E 26 500 3
E 27 28 1
E 27 505 3
E 28 506 3
E 29 30 1
E 29 473 30
E 29 489 3
E 29 495 12
E 30 31 14
E 30 490 3
E 30 497 12
E 31 32 1
E 31 496 3
E 31 503 12
E 32 498 3
E 32 501 7
E 32 504 12
E 33 34 1
E 33 463 30
E 33 474 9
E 33 485 12
E 34 35 14
E 34 475 9
E 34 486 12
E 35 36 1
E 35 481 9
E 35 491 12
E 36 482 9
E 36 492 12
E 37 38 1
E 37 300 24
E 37 315 7
E 38 39 14
E 38 303 24
E 39 40 1
E 39 312 24
E 40 314 24
E 41 42 1
E 41 243 8
E 41 244 7
E 41 262 11
E 42 43 14
E 42 245 8
E 42 263 11
E 43 44 1
E 43 258 8
E 43 276 11
E 44 259 8
E 44 272 7
E 44 277 11
E 45 46 1
E 45 215 8
E 45 216 7
E 45 239 11
E 46 47 14
E 46 217 8
E 46 241 11
E 47 48 1
E 47 230 8
E 47 255 11
E 48 231 8
E 48 250 7
E 48 257 11
E 49 50 1
E 49 53 23
E 49 302 1
E 50 51 14
E 50 54 23
E 50 305 1
E 51 52 1
E 51 55 23
E 51 313 1
E 52 56 23
E 52 315 1
E 53 54 1
E 53 57 21
E 53 267 22
E 54 55 14
E 54 58 21
E 55 56 1
E 55 59 21
E 56 60 21
E 56 300 7
E 57 58 1
E 57 238 27
E 58 59 14
E 58 240 27
E 59 60 1
E 59 254 27
E 60 256 27
E 60 286 7
E 61 62 1
E 61 470 2
E 62 471 2
E 62 477 8
E 63 64 1
E 63 477 6
E 63 478 2
E 63 483 9
E 64 479 2
E 64 484 9
E 64 495 30
E 65 66 1
E 65 453 7
E 65 456 2
E 65 464 9
E 66 67 14
E 66 457 2
E 66 465 9
E 67 68 1
E 67 466 2
E 67 472 9
E 68 467 2
E 68 473 9
E 68 485 30
E 69 70 1
E 69 438 3
E 70 71 14
E 70 440 3
E 71 72 1
E 71 454 4
E 72 455 4
E 73 74 1
E 73 206 1
E 73 266 48
E 74 75 14
E 74 208 1
E 74 267 48
E 75 76 1
E 75 223 1
E 76 225 1
E 76 238 7
E 77 78 1
E 77 192 7
E 77 194 1
E 77 199 8
E 78 79 14
E 78 196 1
E 78 200 8
E 79 80 1
E 79 202 1
E 79 210 8
E 80 204 1
E 80 211 7
E 80 212 8
E 81 82 1
E 81 189 8
E 82 83 14
E 82 190 8
E 83 84 1
E 83 197 8
E 84 198 8
E 84 215 30
E 85 86 14
E 85 480 31
E 87 88 1
E 87 415 53
E 87 445 9
E 88 89 14
E 88 447 9
E 89 90 1
E 89 458 10
E 90 459 10
E 90 470 7
E 91 92 1
E 91 417 30
E 91 428 10
E 91 434 1
E 92 93 14
E 92 429 10
E 92 436 1
E 93 94 1
E 93 441 10
E 93 450 1
E 94 443 10
E 94 452 1
E 94 456 7
E 95 96 1
E 95 187 20
E 96 97 14
E 96 188 20
E 97 98 1
E 97 191 20
E 98 192 20
E 98 206 7
E 99 100 1
E 99 187 1
E 100 101 14
E 100 188 1
E 101 102 1
E 101 191 1
E 102 192 1
E 102 194 7
E 103 104 1
E 103 402 7
E 103 406 1
E 103 408 1
E 104 105 14
E 104 407 1
E 104 409 1
E 105 106 1
E 105 416 1
E 105 418 1
E 106 417 1
E 106 419 1
E 106 434 30
E 107 108 1
E 107 118 7
E 107 395 1
E 108 109 14
E 108 397 1
E 109 110 1
E 109 404 1
E 110 405 1
E 110 421 30
E 111 112 1
E 111 391 10
E 111 396 7
E 112 113 14
E 112 393 10
E 113 114 1
E 113 401 10
E 113 413 9
E 114 403 10
E 114 411 7
E 114 415 9
E 115 116 1
E 115 119 25
E 115 353 22
E 115 368 1
E 116 117 14
E 116 120 25
E 116 370 1
E 117 118 1
E 117 121 25
E 117 382 1
E 118 122 25
E 118 384 1
E 119 120 1
E 119 343 7
E 120 121 14
E 121 122 1
E 121 318 111
E 122 319 111
E 123 124 1
E 123 385 7
E 123 388 5
E 124 125 14
E 124 389 5
E 125 126 1
E 125 398 7
E 126 399 7
E 127 128 1
E 127 158 7
E 127 278 13
E 127 306 21
E 128 129 14
E 128 279 13
E 128 307 21
E 129 130 1
E 129 133 25
E 129 316 21
E 130 134 25
E 130 317 21
E 130 318 22
E 131 132 1
E 131 237 30
E 131 247 21
E 131 278 12
E 132 133 14
E 132 249 21
E 132 279 12
E 133 134 1
E 134 266 219
E 134 302 218
E 135 136 1
E 135 139 21
E 136 137 14
E 136 140 21
E 137 138 1
E 137 141 21
E 138 142 21
E 139 140 1
E 139 369 5
E 140 141 14
E 140 371 5
E 141 142 1
E 141 383 5
E 142 385 5
E 143 144 1
E 143 348 10
E 143 354 7
E 143 362 9
E 144 145 14
E 144 349 10
E 144 363 9
E 145 146 1
E 145 357 10
E 145 373 9
E 146 359 10
E 146 372 7
E 146 375 9
E 147 148 1
E 147 294 9
E 147 299 7
E 147 308 6
E 148 149 14
E 148 297 9
E 148 310 6
E 149 150 1
E 149 309 9
E 149 320 6
E 150 311 9
E 150 321 6
E 151 152 1
E 151 280 9
E 151 283 7
E 151 294 12
E 152 153 14
E 152 282 9
E 152 297 12
E 153 154 1
E 153 292 9
E 153 309 12
E 154 293 9
E 154 306 7
E 154 311 12
E 155 156 1
E 155 260 13
E 155 265 7
E 155 280 12
E 156 157 14
E 156 261 13
E 156 282 12
E 157 158 1
E 157 273 13
E 157 292 12
E 158 275 13
E 158 293 12
E 159 160 1
E 159 340 11
E 160 161 14
E 160 341 11
E 161 162 1
E 161 351 11
E 162 354 11
E 162 364 7
E 163 164 1
E 163 167 21
E 163 340 10
E 164 165 14
E 164 168 21
E 164 341 10
E 165 166 1
E 165 169 21
E 165 351 10
E 166 170 21
E 166 348 7
E 166 354 10
E 167 168 1
E 167 328 1
E 168 169 14
E 168 329 1
E 169 170 1
E 169 332 1
E 170 333 1
E 170 337 7
E 171 172 1
E 171 270 12
E 171 287 9
E 172 173 14
E 172 271 12
E 172 289 9
E 173 174 1
E 173 281 12
E 173 296 9
E 174 283 12
E 174 294 7
E 174 299 9
E 175 176 1
E 175 234 22
E 175 246 12
E 175 270 9
E 176 177 14
E 176 248 12
E 176 271 9
E 177 178 1
E 177 264 12
E 177 281 9
E 178 265 12
E 178 280 7
E 178 283 9
E 179 180 1
E 179 218 12
E 179 246 13
E 180 181 14
E 180 219 12
E 180 248 13
E 181 182 1
E 181 235 12
E 181 264 13
E 182 237 12
E 182 260 7
E 182 265 13
E 183 184 1
E 183 232 36
E 184 185 14
E 184 234 36
E 185 186 1
E 186 290 7
E 187 188 1
E 188 191 14
E 189 190 1
E 189 193 11
E 190 195 11
E 190 197 14
E 191 192 1
E 193 194 1
E 193 195 1
E 194 196 1
E 195 196 1
E 195 201 14
E 196 202 14
E 197 198 1
E 197 201 11
E 198 203 11
E 198 214 22
E 199 200 1
E 199 205 11
E 200 207 11
E 200 210 14
E 201 202 1
E 201 203 1
E 202 204 1
E 203 204 1
E 203 209 8
E 205 206 1
E 205 207 1
E 206 208 1
E 207 208 1
E 207 222 14
E 208 223 14
E 209 213 2
E 209 226 14
E 210 212 1
E 210 222 11
E 211 213 1
E 211 220 8
E 212 220 7
E 212 224 11
E 213 221 8
E 213 228 14
E 214 216 1
E 214 226 11
E 215 217 1
E 216 227 11
E 217 230 14
E 218 219 1
E 219 235 14
E 220 221 1
E 220 233 11
E 221 236 11
E 221 242 14
E 222 223 1
E 222 224 1
E 223 225 1
E 224 225 1
E 224 233 7
E 226 227 1
E 226 228 2
E 227 229 2
E 227 239 7
E 228 229 1
E 228 242 8
E 229 243 7
E 229 244 8
E 230 231 1
E 232 234 1
E 233 236 1
E 233 238 2
E 235 237 1
E 236 240 2
E 236 251 14
E 238 240 1
E 239 241 1
E 239 243 2
E 240 254 14
E 241 245 2
E 241 255 14
E 242 244 1
E 242 251 11
E 243 245 1
E 244 253 11
E 245 258 14
E 246 248 1
E 247 249 1
E 248 264 14
E 249 266 213
E 249 302 212
E 250 252 1
E 251 253 1
E 251 254 2
E 252 268 14
E 253 256 2
E 253 262 7
E 254 256 1
E 255 257 1
E 255 258 2
E 257 259 2
E 258 259 1
E 260 261 1
E 261 273 14
E 262 263 1
E 262 286 29
E 263 276 14
E 263 288 29
E 264 265 1
E 266 267 1
E 266 319 221
E 268 269 1
E 270 271 1
E 271 281 14
E 272 274 1
E 273 275 1
E 274 284 14
E 275 278 7
E 276 277 1
E 276 295 29
E 277 298 29
E 278 279 1
E 280 282 1
E 281 283 1
E 282 292 14
E 284 285 1
E 286 288 1
E 286 300 21
E 287 289 1
E 287 290 6
E 288 295 14
E 288 303 21
E 289 291 6
E 289 296 14
E 290 291 1
E 290 322 63
E 291 301 14
E 291 323 63
E 292 293 1
E 294 297 1
E 295 298 1
E 295 312 21
E 296 299 1
E 296 301 6
E 297 309 14
E 298 314 21
E 299 304 6
E 300 303 1
E 301 304 1
E 301 324 63
E 302 305 1
E 302 319 220
E 303 312 14
E 304 308 7
E 304 325 63
E 305 313 14
E 306 307 1
E 306 334 90
E 307 316 14
E 307 335 90
E 308 310 1
E 308 326 63
E 309 311 1
E 310 320 14
E 310 327 63
E 312 314 1
E 313 315 1
E 316 317 1
E 316 342 90
E 317 343 90
E 318 319 1
E 320 321 1
E 320 330 63
E 321 331 63
E 322 323 1
E 322 328 25
E 323 324 14
E 323 329 25
E 324 325 1
E 324 332 25
E 325 326 7
E 325 333 25
E 326 327 1
E 326 336 25
E 327 330 14
E 327 338 25
E 328 329 1
E 329 332 14
E 330 331 1
E 330 344 25
E 331 334 7
E 331 346 25
E 332 333 1
E 333 336 7
E 334 335 1
E 334 350 25
E 335 342 14
E 335 353 25
E 336 337 1
E 336 338 1
E 337 339 1
E 337 348 21
E 338 339 1
E 338 344 14
E 339 345 14
E 339 349 21
E 340 341 1
E 341 351 14
E 342 343 1
E 342 360 26
E 343 361 26
E 344 345 1
E 344 346 1
E 345 347 1
E 345 356 20
E 346 347 1
E 346 350 7
E 347 352 7
E 347 358 20
E 348 349 1
E 349 357 14
E 350 352 1
E 350 353 1
E 351 354 1
E 352 355 1
E 352 366 21
E 353 355 1
E 355 360 14
E 355 367 21
E 356 357 1
E 356 358 1
E 357 359 1
E 358 359 1
E 358 378 22
E 359 366 7
E 360 361 1
E 360 378 20
E 361 368 7
E 361 380 20
E 362 363 1
E 362 364 2
E 363 365 2
E 363 373 14
E 364 365 1
E 364 369 5
E 365 371 5
E 365 376 14
E 366 367 1
E 366 372 10
E 367 374 10
E 367 379 14
E 368 370 1
E 368 390 20
E 369 371 1
E 370 382 14
E 370 392 20
E 371 383 14
E 372 374 1
E 372 386 9
E 373 375 1
E 373 376 2
E 374 387 9
E 374 394 14
E 375 377 2
E 375 386 7
E 376 377 1
E 376 383 5
E 377 385 5
E 377 388 7
E 378 379 1
E 378 380 1
E 379 381 1
E 379 394 10
E 380 381 1
E 380 390 7
E 381 391 7
E 381 396 10
E 382 384 1
E 382 400 20
E 383 385 1
E 384 395 7
E 384 402 20
E 386 387 1
E 386 388 2
E 387 389 2
E 387 398 14
E 388 389 1
E 390 391 1
E 390 392 1
E 391 393 1
E 392 393 1
E 392 400 14
E 393 401 14
E 394 396 1
E 394 398 9
E 395 397 1
E 395 406 19
E 396 399 9
E 397 404 14
E 397 407 19
E 398 399 1
E 399 413 22
E 400 401 1
E 400 402 1
E 401 403 1
E 402 403 1
E 403 408 7
E 404 405 1
E 404 416 19
E 405 417 19
E 405 424 30
E 406 407 1
E 407 416 14
E 408 409 1
E 408 410 9
E 409 412 9
E 409 418 14
E 410 411 1
E 410 412 1
E 411 414 1
E 412 414 1
E 412 420 14
E 413 415 1
E 414 422 14
E 416 417 1
E 418 419 1
E 418 420 9
E 419 423 9
E 419 435 30
E 420 422 1
E 420 423 1
E 421 424 1
E 421 425 1
E 422 426 1
E 423 426 1
E 423 444 30
E 424 427 1
E 424 428 9
E 425 427 1
E 425 430 14
E 426 445 30
E 427 429 9
E 427 431 14
E 428 429 1
E 429 441 14
E 430 431 1
E 430 432 1
E 431 433 1
E 431 441 9
E 432 433 1
E 432 438 7
E 433 439 7
E 433 443 9
E 434 435 1
E 434 436 1
E 435 437 1
E 435 444 9
E 436 437 1
E 436 450 14
E 437 446 9
E 437 451 14
E 438 439 1
E 438 440 1
E 439 442 1
E 439 448 9
E 440 442 1
E 441 443 1
E 442 449 9
E 442 454 14
E 443 448 7
E 444 445 1
E 444 446 1
E 445 447 1
E 446 447 1
E 446 458 14
E 448 449 1
E 448 456 10
E 449 457 10
E 449 461 14
E 450 451 1
E 450 452 1
E 451 453 1
E 451 458 9
E 452 453 1
E 453 459 9
E 454 455 1
E 454 461 9
E 455 460 7
E 455 463 9
E 456 457 1
E 457 466 14
E 458 459 1
E 459 464 7
E 460 462 1
E 461 463 1
E 461 466 10
E 462 468 14
E 463 467 10
E 464 465 1
E 464 470 10
E 465 471 10
E 465 472 14
E 466 467 1
E 468 469 1
E 469 474 7
E 470 471 1
E 471 476 8
E 472 473 1
E 472 478 10
E 473 479 10
E 474 475 1
E 475 481 14
E 476 477 2
E 476 478 6
E 477 480 9
E 478 479 1
E 480 483 6
E 481 482 1
E 482 487 7
E 483 484 1
E 485 486 1
E 485 489 6
E 486 490 6
E 486 491 14
E 487 488 1
E 488 493 14
E 489 490 1
E 490 496 14
E 491 492 1
E 491 496 6
E 492 498 6
E 493 494 1
E 495 497 1
E 495 499 6
E 496 498 1
E 497 500 6
E 497 503 14
E 499 500 1
E 500 505 14
E 501 502 1
E 502 507 14
E 503 504 1
E 503 505 6
E 504 506 6
E 505 506 1
E 507 508 1
E 1 509 100000
E 2 509 100000
E 3 509 100000
E 4 509 100000
E 5 510 100000
E 6 510 100000
E 7 510 100000
E 8 510 100000
E 9 511 100000
E 10 511 100000
E 11 511 100000
E 12 511 100000
E 13 512 100000
E 14 512 100000
E 15 512 100000
E 16 512 100000
E 17 513 100000
E 18 513 100000
E 19 513 100000
E 20 513 100000
E 21 514 100000
E 22 514 100000
E 23 514 100000
E 24 514 100000
E 25 515 100000
E 26 515 100000
E 27 515 100000
E 28 515 100000
E 29 516 100000
E 30 516 100000
E 31 516 100000
E 32 516 100000
E 33 517 100000
E 34 517 100000
E 35 517 100000
E 36 517 100000
E 37 518 100000
E 38 518 100000
E 39 518 100000
E 40 518 100000
E 41 519 100000
E 42 519 100000
E 43 519 100000
E 44 519 100000
E 45 520 100000
E 46 520 100000
E 47 520 100000
E 48 520 100000
E 49 521 100000
E 50 521 100000
E 51 521 100000
E 52 521 100000
E 53 522 100000
E 54 522 100000
E 55 522 100000
E 56 522 100000
E 57 523 100000
E 58 523 100000
E 59 523 100000
E 60 523 100000
E 61 524 100000
E 62 524 100000
E 63 524 100000
E 64 524 100000
E 65 525 100000
E 66 525 100000
E 67 525 100000
E 68 525 100000
E 69 526 100000
E 70 526 100000
E 71 526 100000
E 72 526 100000
E 73 527 100000
E 74 527 100000
E 75 527 100000
E 76 527 100000
E 77 528 100000
E 78 528 100000
E 79 528 100000
E 80 528 100000
E 81 529 100000
E 82 529 100000
E 83 529 100000
E 84 529 100000
E 85 530 100000
E 86 530 100000
E 87 531 100000
E 88 531 100000
E 89 531 100000
E 90 531 100000
E 91 532 100000
E 92 532 100000
E 93 532 100000
E 94 532 100000
E 95 533 100000
E 96 533 100000
E 97 533 100000
E 98 533 100000
E 99 534 100000
E 100 534 100000
E 101 534 100000
E 102 534 100000
E 103 535 100000
E 104 535 100000
E 105 535 100000
E 106 535 100000
E 107 536 100000
E 108 536 100000
E 109 536 100000
E 110 536 100000
E 111 537 100000
E 112 537 100000
E 113 537 100000
E 114 537 100000
E 115 538 100000
E 116 538 100000
E 117 538 100000
E 118 538 100000
E 119 539 100000
E 120 539 100000
E 121 539 100000
E 122 539 100000
E 123 540 100000
E 124 540 100000
E 125 540 100000
E 126 540 100000
E 127 541 100000
E 128 541 100000
E 129 541 100000
E 130 541 100000
E 131 542 100000
E 132 542 100000
E 133 542 100000
E 134 542 100000
E 135 543 100000
E 136 543 100000
E 137 543 100000
E 138 543 100000
E 139 544 100000
E 140 544 100000
E 141 544 100000
E 142 544 100000
E 143 545 100000
E 144 545 100000
E 145 545 100000
E 146 545 100000
E 147 546 100000
E 148 546 100000
E 149 546 100000
E 150 546 100000
E 151 547 100000
E 152 547 100000
E 153 547 100000
E 154 547 100000
E 155 548 100000
E 156 548 100000
E 157 548 100000
E 158 548 100000
E 159 549 100000
E 160 549 100000
E 161 549 100000
E 162 549 100000
E 163 550 100000
E 164 550 100000
E 165 550 100000
E 166 550 100000
E 167 551 100000
E 168 551 100000
E 169 551 100000
E 170 551 100000
E 171 552 100000
E 172 552 100000
E 173 552 100000
E 174 552 100000
E 175 553 100000
E 176 553 100000
E 177 553 100000
E 178 553 100000
E 179 554 100000
E 180 554 100000
E 181 554 100000
E 182 554 100000
E 183 555 100000
E 184 555 100000
E 185 555 100000
E 186 555 100000
END 

SECTION Terminals 
Terminals 48
TP 509 533
TP 510 534
TP 511 535
TP 512 536
TP 513 537
TP 514 538
TP 515 539
TP 516 540
TP 517 541
TP 518 542
TP 519 543
TP 520 544
TP 521 545
TP 522 546
TP 523 547
TP 524 548
TP 525 549
TP 526 550
TP 527 551
TP 528 552
TP 529 553
TP 530 554
TP 531 555
TP 532 491
END 
